(declare-fun temp934_1 () (_ BitVec 64))
(declare-fun temp934_2 () (_ BitVec 64))
(declare-fun var1511466 () (_ BitVec 64))
(declare-fun k!0 () Bool)
(declare-fun ARGNAME_input_NAMEEND_DIM () (_ BitVec 64))
(declare-fun temp934_3 () (_ BitVec 64))
(declare-fun var1511492 () (_ BitVec 64))
(declare-fun temp934_4 () (_ BitVec 64))
(declare-fun temp934_5 () (_ BitVec 64))
(declare-fun var1511598 () (_ BitVec 64))
(declare-fun var1838488 () (_ BitVec 64))
(declare-fun temp934_6 () (_ BitVec 64))
(declare-fun var1904913 () (_ BitVec 64))
(declare-fun temp934_7 () (_ BitVec 64))
(declare-fun var1511599 () (_ BitVec 64))
(declare-fun var1511605 () (_ BitVec 64))
(declare-fun temp934_10 () (_ BitVec 64))
(declare-fun temp934_9 () (_ BitVec 64))
(declare-fun temp934_11 () (_ BitVec 64))
(declare-fun var2298166 () (_ BitVec 64))
(declare-fun var2363713 () (_ BitVec 64))
(declare-fun temp934_13 () (_ BitVec 64))
(declare-fun temp934_12 () (_ BitVec 64))
(declare-fun temp934_14 () (_ BitVec 64))
(declare-fun var3215670 () (_ BitVec 64))
(declare-fun var3281217 () (_ BitVec 64))
(declare-fun temp934_15 () (_ BitVec 64))
(declare-fun var3806954 () (_ BitVec 64))
(declare-fun var3806938 () (_ BitVec 64))
(declare-fun var3022264 () (_ BitVec 64))
(declare-fun temp934_18 () (_ BitVec 64))
(declare-fun temp934_17 () (_ BitVec 64))
(declare-fun temp934_19 () (_ BitVec 64))
(declare-fun var4329782 () (_ BitVec 64))
(declare-fun var4395329 () (_ BitVec 64))
(declare-fun temp934_20 () (_ BitVec 64))
(declare-fun var3018596 () (_ BitVec 64))
(declare-fun temp934_22 () (_ BitVec 64))
(declare-fun temp934_21 () (_ BitVec 64))
(declare-fun temp934_24 () (_ BitVec 64))
(declare-fun temp934_23 () (_ BitVec 64))
(declare-fun temp934_26 () (_ BitVec 64))
(declare-fun temp934_25 () (_ BitVec 64))
(declare-fun temp934_28 () (_ BitVec 64))
(declare-fun temp934_27 () (_ BitVec 64))
(declare-fun temp934_30 () (_ BitVec 64))
(declare-fun temp934_29 () (_ BitVec 64))
(declare-fun temp934_32 () (_ BitVec 64))
(declare-fun temp934_31 () (_ BitVec 64))
(declare-fun temp934_34 () (_ BitVec 64))
(declare-fun temp934_33 () (_ BitVec 64))
(declare-fun temp934_36 () (_ BitVec 64))
(declare-fun temp934_35 () (_ BitVec 64))
(declare-fun temp934_38 () (_ BitVec 64))
(declare-fun temp934_37 () (_ BitVec 64))
(declare-fun temp934_40 () (_ BitVec 64))
(declare-fun temp934_39 () (_ BitVec 64))
(declare-fun temp934_41 () (_ BitVec 64))
(declare-fun var3021829 () (_ BitVec 64))
(declare-fun temp934_42 () (_ BitVec 64))
(assert (= temp934_1 #x0000000000000040))
(assert (= var1511466
   (ite (bvsgt ARGNAME_input_NAMEEND_DIM temp934_1)
        #x0000000000000001
        #x0000000000000000)))
(assert (= temp934_2 #x0000000000000000))
(assert (= var1511466 temp934_2))
(assert (= temp934_3 #x0000000000000000))
(assert (= var1511492
   (ite (bvsgt ARGNAME_input_NAMEEND_DIM temp934_3)
        #x0000000000000001
        #x0000000000000000)))
(assert (= temp934_4 #x0000000000000001))
(assert (= var1511492 temp934_4))
(assert (= temp934_5 #x0000000000000000))
(assert (= var1511598 temp934_5))
(assert (= var1838488 var1511598))
(assert (= temp934_6 #x0000000000000001))
(assert (= var1904913 temp934_6))
(assert (= temp934_7 #x0000000000000001))
(assert (= var1511599 (bvadd var1511598 temp934_7)))
(assert (= var1511605
   (ite (= var1511599 ARGNAME_input_NAMEEND_DIM)
        #x0000000000000001
        #x0000000000000000)))
(assert (= temp934_10 #x0000000000000000))
(assert (= temp934_9 temp934_10))
(assert (= temp934_11 #x0000000000000000))
(assert (= var2298166 temp934_11))
(assert (= var2363713 var2298166))
(assert (= temp934_13 #x0000000000000000))
(assert (= temp934_12 temp934_13))
(assert (= temp934_14 #x0000000000000000))
(assert (= var3215670 temp934_14))
(assert (= var3281217 var3215670))
(assert (= temp934_15 #x0000000000000000))
(assert (= var3806954 temp934_15))
(assert (= var3806938 var3806954))
(assert (= var3022264 var3806938))
(assert (= temp934_18 #x0000000000000000))
(assert (= temp934_17 temp934_18))
(assert (= temp934_19 #x0000000000000000))
(assert (= var4329782 temp934_19))
(assert (= var4395329 var4329782))
(assert (= temp934_20 #x0000000000000001))
(assert (= var3018596 temp934_20))
(assert (= temp934_22 #x0000000000000001))
(assert (= temp934_21 temp934_22))
(assert (= temp934_24 #xffffffffffffffff))
(assert (= temp934_23 temp934_24))
(assert (= temp934_26 #x0000000000000000))
(assert (= temp934_25 temp934_26))
(assert (= temp934_28 #xffffffffffffffff))
(assert (= temp934_27 temp934_28))
(assert (= temp934_30 #x0000000000000001))
(assert (= temp934_29 temp934_30))
(assert (= temp934_32 #x0000000000000000))
(assert (= temp934_31 temp934_32))
(assert (= temp934_34 #xfffffffffffffffe))
(assert (= temp934_33 temp934_34))
(assert (= temp934_36 #x0000000000000001))
(assert (= temp934_35 temp934_36))
(assert (= temp934_38 #xffffffffffffffff))
(assert (= temp934_37 temp934_38))
(assert (= temp934_40 #x0000000000000002))
(assert (= temp934_39 temp934_40))
(assert (= temp934_41 #x0000000000000001))
(assert (distinct var3021829 temp934_41))
(assert (= temp934_42 #x0000000000000002))
(assert (distinct var3021829 temp934_42))
(model-add temp934_1 () (_ BitVec 64) #x0000000000000040)
(model-add temp934_2 () (_ BitVec 64) #x0000000000000000)
(model-add var1511466 () (_ BitVec 64) #x0000000000000000)
(model-del k!0)
(model-add ARGNAME_input_NAMEEND_DIM
           ()
           (_ BitVec 64)
           (ite (or k!0 (= #x0000000000000040 #x7fffffffffffffff))
                #x0000000000000040
                (bvadd #x0000000000000040 #x0000000000000001)))





